95 95
25 28
2 91
39 77
18 50
29 48
15 10
31 34
44 44
16 66
33 45
3 90
9 94
38 75
12 59
35 89
16 36
30 79
7 7
1 86
29 82
20 43
14 95
10 6
24 5
20 26
4 32
15 20
41 15
46 30
1 54
31 71
17 76
19 88
27 24
30 11
6 67
13 52
12 18
21 41
7 39
38 25
27 64
47 17
35 85
24 93
4 53
23 87
45 47
5 2
18 83
13 58
46 31
10 35
39 68
40 57
23 81
1 13
28 80
22 73
8 78
22 4
43 92
17 27
37 19
41 38
32 37
42 74
33 46
3 49
19 69
11 63
42 8
2 3
45 61
28 16
26 29
36 9
36 1
5 14
40 72
43 12
25 21
37 51
47 55
34 56
9 60
44 70
21 33
6 62
26 40
32 22
8 23
14 65
11 84
34 42
